output ((((["digraph {\n"]++[(("  "++format(n-1)++"")++if n in cnodes then "[fillcolor=\"#59d0a0\",style=filled];" else if n in dnodes then "[fillcolor=gold,style=filled];" else "" endif endif)++"\n" | n in nodes,  where fix(vs[n])])++[("  "++if fix(heads[e]) in cnodes then ""++format(heads[e]-1)++" -> "++format(tails[e]-1)++"" else ""++format(tails[e]-1)++" -> "++format(heads[e]-1)++"" endif)++" [label=\"w="++format(int2float(ws[e])/int2float(10000))++"\"];\n" | e in edges,  where fix(es[e])])++["  "++format(attribute_names[a])++" [shape=hexagon];\n" | a in atts, ])++["  "++if fix(match[a]!=attribute_names[a]) then ""++format(match[a]-1)++" -> "++format(attribute_names[a])++" [label=\"w="++format(int2float(match_costs[a,fix(match[a])])/int2float(10000))++"\"];\n" else ""++format(match[a])++" -> "++format(match[a])++" [label=\"Imposible match\"];\n" endif | a in atts, ])++["  graph [label=\"\nobj = "++format(obj)++"\nwm = "++format(wm)++"\nwp = "++format(wp)++"\nw = "++format(w)++"\",time=\""++format(time)++"\"]}"];
set of int: nodes = 1..112;
set of int: edges = 1..151;
set of int: cnodes = {1,2,3,4,5,6,7,8,28,29,30,39,43,46,50,51,52};
set of int: dnodes = {9,10,11,12,13,14,15,16,17,18,19,20,21,22,23,24,25,26,27,31,32,33,34,35,36,37,38,40,41,42,44,45,47,48,49,53,54,55,56,57,58,59,60,61,62,63,64,65,66,67,68,69,70,71,72,73,74,75,76,77,78,79,80,81,82,83,84,85,86,87,88,89,90,91,92,93,94,95,96,97,98,99,100,101,102,103,104,105,106,107,108,109,110,111,112};
array [nodes] of bool: vs;
array [edges] of bool: es;
array [edges] of int: heads = [2,3,4,5,6,7,8,43,46,28,50,51,52,39,29,30,4,29,46,7,9,13,16,19,20,23,27,45,65,66,67,68,69,70,71,72,73,74,75,76,77,78,79,80,81,82,83,84,85,86,87,88,89,90,91,92,93,94,95,96,97,98,99,100,101,102,103,104,105,106,107,108,109,110,111,112,10,17,49,51,51,52,52,22,50,50,25,42,14,21,5,6,8,11,12,15,18,24,28,29,30,32,34,36,37,38,39,43,44,50,51,52,26,35,33,28,6,8,8,41,43,43,62,50,51,52,54,55,56,57,59,39,30,31,40,50,50,51,51,28,28,53,52,52,58,60,48,47,64,61,63];
array [edges] of int: tails = [1,1,1,1,1,1,1,1,1,1,1,1,1,1,1,1,2,2,2,2,3,3,3,3,3,3,3,3,3,3,3,3,3,3,3,3,3,3,3,3,3,3,3,3,3,3,3,3,3,3,3,3,3,3,3,3,3,3,3,3,3,3,3,3,3,3,3,3,3,3,3,3,3,3,3,3,4,5,5,5,5,5,5,5,5,5,5,5,5,6,7,7,7,7,7,7,7,7,7,7,7,7,7,7,7,7,7,7,7,7,7,7,8,28,29,29,29,29,29,29,29,29,29,29,29,29,29,29,29,29,29,29,29,30,39,43,43,43,43,43,43,43,43,43,43,43,43,46,50,51,52];
array [edges] of int: ws = [3214,689,3214,689,7500,1724,5172,8800,8888,9200,10000,10000,10000,8666,8400,7692,2857,10000,8888,2857,10000,10000,10000,10000,10000,10000,10000,10000,10000,10000,10000,10000,10000,10000,10000,10000,10000,20000,20000,20000,20000,20000,20000,20000,20000,20000,20000,20000,20000,20000,20000,20000,20000,20000,20000,20000,20000,20000,20000,20000,20000,20000,20000,20000,20000,20000,20000,20000,20000,20000,20000,20000,20000,20000,20000,20000,10000,10000,10000,10000,10000,10000,10000,10000,10000,10000,10000,10000,10000,10000,1724,8500,6206,10000,10000,10000,10000,10000,10000,8400,8461,10000,10000,10000,10000,10000,8666,8750,10000,10000,10000,10000,10000,10000,10000,10000,9333,10000,10000,10000,10000,10000,10000,10000,10000,10000,10000,10000,10000,10000,10000,10000,9600,10000,10000,10000,10000,10000,10000,10000,10000,10000,10000,10000,10000,10000,10000,10000,10000,10000,10000];
int: w;
set of int: atts = 1..56;
array [atts] of int: match;
array [atts] of int: attribute_names = [113,114,115,116,117,118,119,120,121,122,123,124,125,126,127,128,129,130,131,132,133,134,135,136,137,138,139,140,141,142,143,144,145,146,147,148,149,150,151,152,153,154,155,156,157,158,159,160,161,162,163,164,165,166,167,168];
int: wp;
array [atts,1..112] of int: match_costs = [|0,0,0,0,0,0,0,0,364,0,0,0,364,0,0,364,0,0,364,364,0,0,364,0,0,0,364,0,0,0,0,0,0,0,0,0,0,0,0,0,0,0,0,0,364,0,0,0,0,0,0,0,0,0,0,0,0,0,0,0,0,0,0,0,364,364,364,364,364,364,364,364,364,364,364,364,364,364,364,364,364,364,364,364,364,364,364,364,364,364,364,364,364,364,364,364,364,364,364,364,364,364,364,364,364,364,364,364,364,364,364,364|0,0,0,0,0,0,0,0,511,0,0,0,511,0,0,511,0,0,511,511,0,0,511,0,0,0,511,0,0,0,0,0,0,0,0,0,0,0,0,0,0,0,0,0,511,0,0,0,0,0,0,0,0,0,0,0,0,0,0,0,0,0,0,0,511,511,511,511,511,511,511,511,511,511,511,511,511,511,511,511,511,511,511,511,511,511,511,511,511,511,511,511,511,511,511,511,511,511,511,511,511,511,511,511,511,511,511,511,511,511,511,511|0,0,0,0,0,0,0,0,8331,0,0,9841,8331,9671,9669,8331,0,0,8331,8331,0,0,8331,9539,9561,8986,8331,0,0,0,8986,4986,0,9539,9642,9884,0,0,0,0,9841,0,0,0,8331,0,0,9561,0,0,0,0,9671,9539,0,9539,4986,0,0,0,9642,0,9642,9642,8331,8331,8331,8331,8331,8331,8331,8331,8331,8331,8331,8331,8331,8331,8331,8331,8331,8331,8331,8331,8331,8331,8331,8331,8331,8331,8331,8331,8331,8331,8331,8331,8331,8331,8331,8331,8331,8331,8331,8331,8331,8331,8331,8331,8331,8331,8331,8331|0,0,0,0,0,0,0,0,6682,9699,0,9685,6682,9436,9427,6682,0,9818,6682,6682,9762,0,6682,9368,8291,8945,6682,0,0,0,8945,9883,0,9368,9648,9773,0,0,0,9762,9685,0,0,9765,6682,0,9699,8291,0,0,0,0,9436,9368,0,9368,9883,0,9818,0,9648,0,9648,9648,6682,6682,6682,6682,6682,6682,6682,6682,6682,6682,6682,6682,6682,6682,6682,6682,6682,6682,6682,6682,6682,6682,6682,6682,6682,6682,6682,6682,6682,6682,6682,6682,6682,6682,6682,6682,6682,6682,6682,6682,6682,6682,6682,6682,6682,6682,6682,6682|0,0,0,0,0,0,0,0,511,0,0,0,511,0,0,511,0,0,511,511,0,0,511,0,0,0,511,0,0,0,0,0,0,0,0,0,0,0,0,0,0,0,0,0,511,0,0,0,0,0,0,0,0,0,0,0,0,0,0,0,0,0,0,0,511,511,511,511,511,511,511,511,511,511,511,511,511,511,511,511,511,511,511,511,511,511,511,511,511,511,511,511,511,511,511,511,511,511,511,511,511,511,511,511,511,511,511,511,511,511,511,511|0,0,0,0,0,0,0,0,2485,0,0,0,2485,0,0,2485,9304,9879,2485,2485,0,9508,2485,0,9824,0,2485,0,0,0,0,0,9382,0,0,0,9768,9382,0,0,0,0,0,0,2485,0,0,9824,0,0,0,0,0,0,9768,0,0,9508,9879,9304,0,0,0,0,2485,2485,2485,2485,2485,2485,2485,2485,2485,2485,2485,2485,2485,2485,2485,2485,2485,2485,2485,2485,2485,2485,2485,2485,2485,2485,2485,2485,2485,2485,2485,2485,2485,2485,2485,2485,2485,2485,2485,2485,2485,2485,2485,2485,2485,2485,2485,2485|0,0,0,0,0,0,0,0,7203,0,9705,9620,7203,9447,0,7203,9791,9121,7203,7203,0,0,7203,9787,8747,8104,7203,0,0,0,8104,9448,0,9787,9847,9646,0,0,0,0,9620,0,0,0,7203,0,0,8747,0,0,0,0,9447,9787,0,9787,9448,0,9121,9791,9847,9705,9847,9847,7203,7203,7203,7203,7203,7203,7203,7203,7203,7203,7203,7203,7203,7203,7203,7203,7203,7203,7203,7203,7203,7203,7203,7203,7203,7203,7203,7203,7203,7203,7203,7203,7203,7203,7203,7203,7203,7203,7203,7203,7203,7203,7203,7203,7203,7203,7203,7203|0,0,0,0,0,0,0,0,7106,9843,9659,0,7106,9453,0,7106,9895,8944,7106,7106,0,0,7106,9748,8215,8682,7106,0,0,0,8682,9451,0,9748,9724,9890,0,0,0,0,0,0,0,9765,7106,0,9843,8215,0,0,0,0,9453,9748,0,9748,9451,0,8944,9895,9724,9659,9724,9724,7106,7106,7106,7106,7106,7106,7106,7106,7106,7106,7106,7106,7106,7106,7106,7106,7106,7106,7106,7106,7106,7106,7106,7106,7106,7106,7106,7106,7106,7106,7106,7106,7106,7106,7106,7106,7106,7106,7106,7106,7106,7106,7106,7106,7106,7106,7106,7106|0,0,0,0,0,0,0,0,1575,0,9894,0,1575,0,0,1575,0,9496,1575,1575,0,0,1575,0,0,9680,1575,0,0,0,9680,0,9751,0,0,0,0,9751,0,0,0,0,0,0,1575,0,0,0,0,0,0,0,0,0,0,0,0,0,9496,0,0,9894,0,0,1575,1575,1575,1575,1575,1575,1575,1575,1575,1575,1575,1575,1575,1575,1575,1575,1575,1575,1575,1575,1575,1575,1575,1575,1575,1575,1575,1575,1575,1575,1575,1575,1575,1575,1575,1575,1575,1575,1575,1575,1575,1575,1575,1575,1575,1575,1575,1575|0,0,0,0,0,0,0,0,364,0,0,0,364,0,0,364,0,0,364,364,0,0,364,0,0,0,364,0,0,0,0,0,0,0,0,0,0,0,0,0,0,0,0,0,364,0,0,0,0,0,0,0,0,0,0,0,0,0,0,0,0,0,0,0,364,364,364,364,364,364,364,364,364,364,364,364,364,364,364,364,364,364,364,364,364,364,364,364,364,364,364,364,364,364,364,364,364,364,364,364,364,364,364,364,364,364,364,364,364,364,364,364|0,0,0,0,0,0,0,0,3752,9492,9808,0,3752,9582,0,3752,9837,9678,3752,3752,9843,0,3752,0,9886,8928,3752,0,0,0,8928,9813,9701,0,0,0,0,9701,0,9843,0,0,0,0,3752,0,9492,9886,0,0,0,0,9582,0,0,0,9813,0,9678,9837,0,9808,0,0,3752,3752,3752,3752,3752,3752,3752,3752,3752,3752,3752,3752,3752,3752,3752,3752,3752,3752,3752,3752,3752,3752,3752,3752,3752,3752,3752,3752,3752,3752,3752,3752,3752,3752,3752,3752,3752,3752,3752,3752,3752,3752,3752,3752,3752,3752,3752,3752|0,0,0,0,0,0,0,0,4686,9438,9767,0,4686,9726,0,4686,0,9196,4686,4686,0,9880,4686,0,9036,9567,4686,0,0,0,9567,9894,9562,0,0,0,9582,9562,0,0,0,0,0,0,4686,0,9438,9036,0,0,0,0,9726,0,9582,0,9894,9880,9196,0,0,9767,0,0,4686,4686,4686,4686,4686,4686,4686,4686,4686,4686,4686,4686,4686,4686,4686,4686,4686,4686,4686,4686,4686,4686,4686,4686,4686,4686,4686,4686,4686,4686,4686,4686,4686,4686,4686,4686,4686,4686,4686,4686,4686,4686,4686,4686,4686,4686,4686,4686|0,0,0,0,0,0,0,0,6702,0,9776,9527,6702,9378,0,6702,0,9151,6702,6702,9882,0,6702,0,9423,7597,6702,0,0,0,7597,9839,9634,0,0,9772,0,9634,0,9882,9527,0,0,9843,6702,0,0,9423,0,0,0,0,9378,0,0,0,9839,0,9151,0,0,9776,0,0,6702,6702,6702,6702,6702,6702,6702,6702,6702,6702,6702,6702,6702,6702,6702,6702,6702,6702,6702,6702,6702,6702,6702,6702,6702,6702,6702,6702,6702,6702,6702,6702,6702,6702,6702,6702,6702,6702,6702,6702,6702,6702,6702,6702,6702,6702,6702,6702|0,0,0,0,0,0,0,0,7308,9677,0,9350,7308,9589,9536,7308,0,0,7308,7308,0,0,7308,8871,8405,9487,7308,0,0,0,9487,9660,0,8871,9625,9717,9843,0,0,0,9350,0,0,9257,7308,0,9677,8405,0,0,0,0,9589,8871,9843,8871,9660,0,0,0,9625,0,9625,9625,7308,7308,7308,7308,7308,7308,7308,7308,7308,7308,7308,7308,7308,7308,7308,7308,7308,7308,7308,7308,7308,7308,7308,7308,7308,7308,7308,7308,7308,7308,7308,7308,7308,7308,7308,7308,7308,7308,7308,7308,7308,7308,7308,7308,7308,7308,7308,7308|0,0,0,0,0,0,0,0,4598,0,0,0,4598,0,0,4598,9515,7936,4598,4598,0,9600,4598,0,0,9816,4598,0,0,0,9816,0,9238,0,0,0,9637,9238,0,0,0,0,0,0,4598,0,0,0,0,0,0,0,0,0,9637,0,0,9600,7936,9515,0,0,0,0,4598,4598,4598,4598,4598,4598,4598,4598,4598,4598,4598,4598,4598,4598,4598,4598,4598,4598,4598,4598,4598,4598,4598,4598,4598,4598,4598,4598,4598,4598,4598,4598,4598,4598,4598,4598,4598,4598,4598,4598,4598,4598,4598,4598,4598,4598,4598,4598|0,0,0,0,0,0,0,0,6778,9742,0,9474,6778,9843,9687,6778,0,0,6778,6778,0,0,6778,9577,7454,8817,6778,0,0,0,8817,9444,0,9577,9609,0,0,0,0,0,9474,0,0,9687,6778,0,9742,7454,0,0,0,0,9843,9577,0,9577,9444,0,0,0,9609,0,9609,9609,6778,6778,6778,6778,6778,6778,6778,6778,6778,6778,6778,6778,6778,6778,6778,6778,6778,6778,6778,6778,6778,6778,6778,6778,6778,6778,6778,6778,6778,6778,6778,6778,6778,6778,6778,6778,6778,6778,6778,6778,6778,6778,6778,6778,6778,6778,6778,6778|0,0,0,0,0,0,0,0,1669,0,9880,0,1669,0,0,1669,9749,9788,1669,1669,0,9838,1669,0,0,9657,1669,0,0,0,9657,9877,0,0,0,0,0,0,0,0,0,0,0,0,1669,0,0,0,0,0,0,0,0,0,0,0,9877,9838,9788,9749,0,9880,0,0,1669,1669,1669,1669,1669,1669,1669,1669,1669,1669,1669,1669,1669,1669,1669,1669,1669,1669,1669,1669,1669,1669,1669,1669,1669,1669,1669,1669,1669,1669,1669,1669,1669,1669,1669,1669,1669,1669,1669,1669,1669,1669,1669,1669,1669,1669,1669,1669|0,0,0,0,0,0,0,0,3706,9790,9804,0,3706,0,0,3706,0,9800,3706,3706,9893,9841,3706,9682,8829,9376,3706,0,0,0,9376,9732,0,9682,0,0,0,0,0,9893,0,0,0,0,3706,0,9790,8829,0,0,0,0,0,9682,0,9682,9732,9841,9800,0,0,9804,0,0,3706,3706,3706,3706,3706,3706,3706,3706,3706,3706,3706,3706,3706,3706,3706,3706,3706,3706,3706,3706,3706,3706,3706,3706,3706,3706,3706,3706,3706,3706,3706,3706,3706,3706,3706,3706,3706,3706,3706,3706,3706,3706,3706,3706,3706,3706,3706,3706|0,0,0,0,0,0,0,0,3502,9881,9763,9843,3502,9890,0,3502,0,9735,3502,3502,0,9874,3502,0,9283,8914,3502,0,0,0,8914,0,0,0,0,0,0,0,0,0,9843,0,0,9843,3502,0,9881,9283,0,0,0,0,9890,0,0,0,0,9874,9735,0,0,9763,0,0,3502,3502,3502,3502,3502,3502,3502,3502,3502,3502,3502,3502,3502,3502,3502,3502,3502,3502,3502,3502,3502,3502,3502,3502,3502,3502,3502,3502,3502,3502,3502,3502,3502,3502,3502,3502,3502,3502,3502,3502,3502,3502,3502,3502,3502,3502,3502,3502|0,0,0,0,0,0,0,0,4508,9752,9881,0,4508,9292,0,4508,9861,9727,4508,4508,0,0,4508,0,9881,8388,4508,0,0,0,8388,9357,0,0,0,0,9759,0,0,0,0,0,0,0,4508,0,9752,9881,0,0,0,0,9292,0,9759,0,9357,0,9727,9861,0,9881,0,0,4508,4508,4508,4508,4508,4508,4508,4508,4508,4508,4508,4508,4508,4508,4508,4508,4508,4508,4508,4508,4508,4508,4508,4508,4508,4508,4508,4508,4508,4508,4508,4508,4508,4508,4508,4508,4508,4508,4508,4508,4508,4508,4508,4508,4508,4508,4508,4508|0,0,0,0,0,0,0,0,6084,9867,9421,9881,6084,9741,9789,6084,9893,9617,6084,6084,0,0,6084,9840,8935,8211,6084,0,0,0,8211,9818,9746,9840,9632,9765,0,9746,0,0,9881,0,0,0,6084,0,9867,8935,0,0,0,0,9741,9840,0,9840,9818,0,9617,9893,9632,9421,9632,9632,6084,6084,6084,6084,6084,6084,6084,6084,6084,6084,6084,6084,6084,6084,6084,6084,6084,6084,6084,6084,6084,6084,6084,6084,6084,6084,6084,6084,6084,6084,6084,6084,6084,6084,6084,6084,6084,6084,6084,6084,6084,6084,6084,6084,6084,6084,6084,6084|0,0,0,0,0,0,0,0,7298,9346,9839,9712,7298,0,0,7298,0,0,7298,7298,9820,0,7298,8592,9671,9436,7298,0,0,0,9436,9251,0,8592,0,8221,0,0,0,9820,9712,9485,0,9677,7298,0,9346,9671,9859,0,0,0,0,8592,0,8592,9251,0,0,0,0,9839,0,0,7298,7298,7298,7298,7298,7298,7298,7298,7298,7298,7298,7298,7298,7298,7298,7298,7298,7298,7298,7298,7298,7298,7298,7298,7298,7298,7298,7298,7298,7298,7298,7298,7298,7298,7298,7298,7298,7298,7298,7298,7298,7298,7298,7298,7298,7298,7298,7298|0,0,0,0,0,0,0,0,7598,0,9752,9738,7598,9519,0,7598,0,9212,7598,7598,9843,0,7598,0,7520,8177,7598,0,0,0,8177,9842,9891,0,9751,9734,0,9891,0,9843,9738,0,0,9843,7598,0,0,7520,0,0,0,0,9519,0,0,0,9842,0,9212,0,9751,9752,9751,9751,7598,7598,7598,7598,7598,7598,7598,7598,7598,7598,7598,7598,7598,7598,7598,7598,7598,7598,7598,7598,7598,7598,7598,7598,7598,7598,7598,7598,7598,7598,7598,7598,7598,7598,7598,7598,7598,7598,7598,7598,7598,7598,7598,7598,7598,7598,7598,7598|0,0,0,0,0,0,0,0,3471,0,0,0,3471,0,0,3471,9495,8626,3471,3471,0,9819,3471,0,0,9838,3471,0,0,0,9838,0,9309,0,0,0,9663,9309,0,0,0,0,0,0,3471,0,0,0,0,0,0,0,0,0,9663,0,0,9819,8626,9495,0,0,0,0,3471,3471,3471,3471,3471,3471,3471,3471,3471,3471,3471,3471,3471,3471,3471,3471,3471,3471,3471,3471,3471,3471,3471,3471,3471,3471,3471,3471,3471,3471,3471,3471,3471,3471,3471,3471,3471,3471,3471,3471,3471,3471,3471,3471,3471,3471,3471,3471|0,0,0,0,0,0,0,0,7129,0,9737,9648,7129,9609,0,7129,0,9127,7129,7129,9843,0,7129,9632,8566,8594,7129,0,0,0,8594,9438,0,9632,9692,9742,9888,0,0,9843,9648,0,0,9609,7129,0,0,8566,0,0,0,0,9609,9632,9888,9632,9438,0,9127,0,9692,9737,9692,9692,7129,7129,7129,7129,7129,7129,7129,7129,7129,7129,7129,7129,7129,7129,7129,7129,7129,7129,7129,7129,7129,7129,7129,7129,7129,7129,7129,7129,7129,7129,7129,7129,7129,7129,7129,7129,7129,7129,7129,7129,7129,7129,7129,7129,7129,7129,7129,7129|0,0,0,0,0,0,0,0,3752,9492,9808,0,3752,9582,0,3752,9837,9678,3752,3752,9843,0,3752,0,9886,8928,3752,0,0,0,8928,9813,9701,0,0,0,0,9701,0,9843,0,0,0,0,3752,0,9492,9886,0,0,0,0,9582,0,0,0,9813,0,9678,9837,0,9808,0,0,3752,3752,3752,3752,3752,3752,3752,3752,3752,3752,3752,3752,3752,3752,3752,3752,3752,3752,3752,3752,3752,3752,3752,3752,3752,3752,3752,3752,3752,3752,3752,3752,3752,3752,3752,3752,3752,3752,3752,3752,3752,3752,3752,3752,3752,3752,3752,3752|0,0,0,0,0,0,0,0,3752,9492,9808,0,3752,9582,0,3752,9837,9678,3752,3752,9843,0,3752,0,9886,8928,3752,0,0,0,8928,9813,9701,0,0,0,0,9701,0,9843,0,0,0,0,3752,0,9492,9886,0,0,0,0,9582,0,0,0,9813,0,9678,9837,0,9808,0,0,3752,3752,3752,3752,3752,3752,3752,3752,3752,3752,3752,3752,3752,3752,3752,3752,3752,3752,3752,3752,3752,3752,3752,3752,3752,3752,3752,3752,3752,3752,3752,3752,3752,3752,3752,3752,3752,3752,3752,3752,3752,3752,3752,3752,3752,3752,3752,3752|0,0,0,0,0,0,0,0,903,0,0,0,903,0,0,903,0,9825,903,903,0,0,903,0,0,0,903,0,0,0,0,0,9532,0,0,0,0,9532,0,0,0,0,0,0,903,0,0,0,0,0,0,0,0,0,0,0,0,0,9825,0,0,0,0,0,903,903,903,903,903,903,903,903,903,903,903,903,903,903,903,903,903,903,903,903,903,903,903,903,903,903,903,903,903,903,903,903,903,903,903,903,903,903,903,903,903,903,903,903,903,903,903,903|0,0,0,0,0,0,0,0,3752,9492,9808,0,3752,9582,0,3752,9837,9678,3752,3752,9843,0,3752,0,9886,8928,3752,0,0,0,8928,9813,9701,0,0,0,0,9701,0,9843,0,0,0,0,3752,0,9492,9886,0,0,0,0,9582,0,0,0,9813,0,9678,9837,0,9808,0,0,3752,3752,3752,3752,3752,3752,3752,3752,3752,3752,3752,3752,3752,3752,3752,3752,3752,3752,3752,3752,3752,3752,3752,3752,3752,3752,3752,3752,3752,3752,3752,3752,3752,3752,3752,3752,3752,3752,3752,3752,3752,3752,3752,3752,3752,3752,3752,3752|0,0,0,0,0,0,0,0,7825,9458,9765,8336,7825,0,9671,7825,9843,0,7825,7825,0,0,7825,7850,9446,9757,7825,0,0,0,9757,0,0,7850,0,8911,9843,0,0,0,8336,9837,0,9726,7825,0,9458,9446,0,0,0,0,0,7850,9843,7850,0,0,0,9843,0,9765,0,0,7825,7825,7825,7825,7825,7825,7825,7825,7825,7825,7825,7825,7825,7825,7825,7825,7825,7825,7825,7825,7825,7825,7825,7825,7825,7825,7825,7825,7825,7825,7825,7825,7825,7825,7825,7825,7825,7825,7825,7825,7825,7825,7825,7825,7825,7825,7825,7825|0,0,0,0,0,0,0,0,511,0,0,0,511,0,0,511,0,0,511,511,0,0,511,0,0,0,511,0,0,0,0,0,0,0,0,0,0,0,0,0,0,0,0,0,511,0,0,0,0,0,0,0,0,0,0,0,0,0,0,0,0,0,0,0,511,511,511,511,511,511,511,511,511,511,511,511,511,511,511,511,511,511,511,511,511,511,511,511,511,511,511,511,511,511,511,511,511,511,511,511,511,511,511,511,511,511,511,511,511,511,511,511|0,0,0,0,0,0,0,0,6074,9661,9764,9643,6074,9742,9162,6074,0,9646,6074,6074,9840,0,6074,9404,9258,9181,6074,0,0,0,9181,9708,0,9404,9898,9879,9843,0,0,9840,9643,0,0,9414,6074,0,9661,9258,9882,0,0,0,9742,9404,9843,9404,9708,0,9646,0,9898,9764,9898,9898,6074,6074,6074,6074,6074,6074,6074,6074,6074,6074,6074,6074,6074,6074,6074,6074,6074,6074,6074,6074,6074,6074,6074,6074,6074,6074,6074,6074,6074,6074,6074,6074,6074,6074,6074,6074,6074,6074,6074,6074,6074,6074,6074,6074,6074,6074,6074,6074|0,0,0,0,0,0,0,0,7026,9677,0,9047,7026,0,9682,7026,0,0,7026,7026,0,0,7026,8306,9015,9759,7026,0,0,0,9759,9810,0,8306,9643,9739,9734,0,0,0,9047,0,0,8896,7026,0,9677,9015,0,0,0,0,0,8306,9734,8306,9810,0,0,0,9643,0,9643,9643,7026,7026,7026,7026,7026,7026,7026,7026,7026,7026,7026,7026,7026,7026,7026,7026,7026,7026,7026,7026,7026,7026,7026,7026,7026,7026,7026,7026,7026,7026,7026,7026,7026,7026,7026,7026,7026,7026,7026,7026,7026,7026,7026,7026,7026,7026,7026,7026|0,0,0,0,0,0,0,0,8203,9685,0,9653,8203,0,9736,8203,0,0,8203,8203,0,0,8203,5395,8963,9746,8203,0,0,0,9746,9715,0,5395,0,9324,0,0,0,0,9653,0,0,9765,8203,0,9685,8963,0,0,0,0,0,5395,0,5395,9715,0,0,0,0,0,0,0,8203,8203,8203,8203,8203,8203,8203,8203,8203,8203,8203,8203,8203,8203,8203,8203,8203,8203,8203,8203,8203,8203,8203,8203,8203,8203,8203,8203,8203,8203,8203,8203,8203,8203,8203,8203,8203,8203,8203,8203,8203,8203,8203,8203,8203,8203,8203,8203|0,0,0,0,0,0,0,0,3431,0,0,0,3431,0,0,3431,0,9221,3431,3431,0,9875,3431,0,0,9830,3431,0,0,0,9830,0,8295,0,0,0,0,8295,0,0,0,0,0,0,3431,0,0,0,0,0,0,0,0,0,0,0,0,9875,9221,0,0,0,0,0,3431,3431,3431,3431,3431,3431,3431,3431,3431,3431,3431,3431,3431,3431,3431,3431,3431,3431,3431,3431,3431,3431,3431,3431,3431,3431,3431,3431,3431,3431,3431,3431,3431,3431,3431,3431,3431,3431,3431,3431,3431,3431,3431,3431,3431,3431,3431,3431|0,0,0,0,0,0,0,0,2161,0,9896,0,2161,0,0,2161,9481,9878,2161,2161,0,9782,2161,0,9842,9751,2161,0,0,0,9751,9882,9754,0,0,0,9758,9754,0,0,0,0,0,0,2161,0,0,9842,0,0,0,0,0,0,9758,0,9882,9782,9878,9481,0,9896,0,0,2161,2161,2161,2161,2161,2161,2161,2161,2161,2161,2161,2161,2161,2161,2161,2161,2161,2161,2161,2161,2161,2161,2161,2161,2161,2161,2161,2161,2161,2161,2161,2161,2161,2161,2161,2161,2161,2161,2161,2161,2161,2161,2161,2161,2161,2161,2161,2161|0,0,0,0,0,0,0,0,1586,0,0,0,1586,0,0,1586,0,9416,1586,1586,0,0,1586,0,0,9680,1586,0,0,0,9680,0,9751,0,0,0,0,9751,0,0,0,0,0,0,1586,0,0,0,0,0,0,0,0,0,0,0,0,0,9416,0,0,0,0,0,1586,1586,1586,1586,1586,1586,1586,1586,1586,1586,1586,1586,1586,1586,1586,1586,1586,1586,1586,1586,1586,1586,1586,1586,1586,1586,1586,1586,1586,1586,1586,1586,1586,1586,1586,1586,1586,1586,1586,1586,1586,1586,1586,1586,1586,1586,1586,1586|0,0,0,0,0,0,0,0,1669,0,9880,0,1669,0,0,1669,9749,9788,1669,1669,0,9838,1669,0,0,9657,1669,0,0,0,9657,9877,0,0,0,0,0,0,0,0,0,0,0,0,1669,0,0,0,0,0,0,0,0,0,0,0,9877,9838,9788,9749,0,9880,0,0,1669,1669,1669,1669,1669,1669,1669,1669,1669,1669,1669,1669,1669,1669,1669,1669,1669,1669,1669,1669,1669,1669,1669,1669,1669,1669,1669,1669,1669,1669,1669,1669,1669,1669,1669,1669,1669,1669,1669,1669,1669,1669,1669,1669,1669,1669,1669,1669|0,0,0,0,0,0,0,0,2276,0,0,0,2276,0,0,2276,9490,9594,2276,2276,0,9774,2276,0,0,0,2276,0,0,0,0,0,9609,0,0,0,9547,9609,0,0,0,0,0,0,2276,0,0,0,0,0,0,0,0,0,9547,0,0,9774,9594,9490,0,0,0,0,2276,2276,2276,2276,2276,2276,2276,2276,2276,2276,2276,2276,2276,2276,2276,2276,2276,2276,2276,2276,2276,2276,2276,2276,2276,2276,2276,2276,2276,2276,2276,2276,2276,2276,2276,2276,2276,2276,2276,2276,2276,2276,2276,2276,2276,2276,2276,2276|0,0,0,0,0,0,0,0,364,0,0,0,364,0,0,364,0,0,364,364,0,0,364,0,0,0,364,0,0,0,0,0,0,0,0,0,0,0,0,0,0,0,0,0,364,0,0,0,0,0,0,0,0,0,0,0,0,0,0,0,0,0,0,0,364,364,364,364,364,364,364,364,364,364,364,364,364,364,364,364,364,364,364,364,364,364,364,364,364,364,364,364,364,364,364,364,364,364,364,364,364,364,364,364,364,364,364,364,364,364,364,364|0,0,0,0,0,0,0,0,5004,9516,9719,0,5004,9878,0,5004,0,8738,5004,5004,9895,0,5004,0,8847,9644,5004,0,0,0,9644,0,9720,0,0,0,9441,9720,0,9895,0,0,0,9838,5004,0,9516,8847,0,0,0,0,9878,0,9441,0,0,0,8738,0,0,9719,0,0,5004,5004,5004,5004,5004,5004,5004,5004,5004,5004,5004,5004,5004,5004,5004,5004,5004,5004,5004,5004,5004,5004,5004,5004,5004,5004,5004,5004,5004,5004,5004,5004,5004,5004,5004,5004,5004,5004,5004,5004,5004,5004,5004,5004,5004,5004,5004,5004|0,0,0,0,0,0,0,0,1289,0,0,0,1289,9739,0,1289,0,0,1289,1289,0,0,1289,0,0,9744,1289,0,0,0,9744,9357,0,0,0,0,0,0,0,0,0,0,0,0,1289,0,0,0,0,0,0,0,9739,0,0,0,9357,0,0,0,0,0,0,0,1289,1289,1289,1289,1289,1289,1289,1289,1289,1289,1289,1289,1289,1289,1289,1289,1289,1289,1289,1289,1289,1289,1289,1289,1289,1289,1289,1289,1289,1289,1289,1289,1289,1289,1289,1289,1289,1289,1289,1289,1289,1289,1289,1289,1289,1289,1289,1289|0,0,0,0,0,0,0,0,5586,0,5880,0,5586,0,9838,5586,0,9684,5586,5586,0,0,5586,0,9877,0,5586,0,0,0,0,9889,9843,0,0,9840,9843,9843,0,0,0,0,0,0,5586,0,0,9877,0,0,0,0,0,0,9843,0,9889,0,9684,0,0,5880,0,0,5586,5586,5586,5586,5586,5586,5586,5586,5586,5586,5586,5586,5586,5586,5586,5586,5586,5586,5586,5586,5586,5586,5586,5586,5586,5586,5586,5586,5586,5586,5586,5586,5586,5586,5586,5586,5586,5586,5586,5586,5586,5586,5586,5586,5586,5586,5586,5586|0,0,0,0,0,0,0,0,6699,8406,9868,9686,6699,9644,9811,6699,0,0,6699,6699,9583,0,6699,9726,9276,8512,6699,0,0,0,8512,9780,0,9726,9482,9871,9897,0,0,9583,9686,0,0,0,6699,0,8406,9276,9867,0,0,0,9644,9726,9897,9726,9780,0,0,0,9482,9868,9482,9482,6699,6699,6699,6699,6699,6699,6699,6699,6699,6699,6699,6699,6699,6699,6699,6699,6699,6699,6699,6699,6699,6699,6699,6699,6699,6699,6699,6699,6699,6699,6699,6699,6699,6699,6699,6699,6699,6699,6699,6699,6699,6699,6699,6699,6699,6699,6699,6699|0,0,0,0,0,0,0,0,5658,0,9892,0,5658,9444,9864,5658,0,9850,5658,5658,0,0,5658,0,9879,7338,5658,0,0,0,7338,8918,0,0,9870,0,9898,0,0,0,0,0,0,0,5658,0,0,9879,0,0,0,0,9444,0,9898,0,8918,0,9850,0,9870,9892,9870,9870,5658,5658,5658,5658,5658,5658,5658,5658,5658,5658,5658,5658,5658,5658,5658,5658,5658,5658,5658,5658,5658,5658,5658,5658,5658,5658,5658,5658,5658,5658,5658,5658,5658,5658,5658,5658,5658,5658,5658,5658,5658,5658,5658,5658,5658,5658,5658,5658|0,0,0,0,0,0,0,0,364,0,0,0,364,0,0,364,0,0,364,364,0,0,364,0,0,0,364,0,0,0,0,0,0,0,0,0,0,0,0,0,0,0,0,0,364,0,0,0,0,0,0,0,0,0,0,0,0,0,0,0,0,0,0,0,364,364,364,364,364,364,364,364,364,364,364,364,364,364,364,364,364,364,364,364,364,364,364,364,364,364,364,364,364,364,364,364,364,364,364,364,364,364,364,364,364,364,364,364,364,364,364,364|0,0,0,0,0,0,0,0,3926,0,0,0,3926,0,0,3926,9897,9026,3926,3926,0,9866,3926,0,0,9752,3926,0,0,0,9752,0,7954,0,0,0,9859,7954,0,0,0,0,0,0,3926,0,0,0,0,0,0,0,0,0,9859,0,0,9866,9026,9897,0,0,0,0,3926,3926,3926,3926,3926,3926,3926,3926,3926,3926,3926,3926,3926,3926,3926,3926,3926,3926,3926,3926,3926,3926,3926,3926,3926,3926,3926,3926,3926,3926,3926,3926,3926,3926,3926,3926,3926,3926,3926,3926,3926,3926,3926,3926,3926,3926,3926,3926|0,0,0,0,0,0,0,0,3752,9492,9808,0,3752,9582,0,3752,9837,9678,3752,3752,9843,0,3752,0,9886,8928,3752,0,0,0,8928,9813,9701,0,0,0,0,9701,0,9843,0,0,0,0,3752,0,9492,9886,0,0,0,0,9582,0,0,0,9813,0,9678,9837,0,9808,0,0,3752,3752,3752,3752,3752,3752,3752,3752,3752,3752,3752,3752,3752,3752,3752,3752,3752,3752,3752,3752,3752,3752,3752,3752,3752,3752,3752,3752,3752,3752,3752,3752,3752,3752,3752,3752,3752,3752,3752,3752,3752,3752,3752,3752,3752,3752,3752,3752|0,0,0,0,0,0,0,0,4246,9806,9882,0,4246,9367,9875,4246,9783,0,4246,4246,0,0,4246,9821,9868,8555,4246,0,0,0,8555,9330,0,9821,9827,0,0,0,0,0,0,0,0,0,4246,0,9806,9868,0,0,0,0,9367,9821,0,9821,9330,0,0,9783,9827,9882,9827,9827,4246,4246,4246,4246,4246,4246,4246,4246,4246,4246,4246,4246,4246,4246,4246,4246,4246,4246,4246,4246,4246,4246,4246,4246,4246,4246,4246,4246,4246,4246,4246,4246,4246,4246,4246,4246,4246,4246,4246,4246,4246,4246,4246,4246,4246,4246,4246,4246|0,0,0,0,0,0,0,0,908,0,0,0,908,0,0,908,0,9672,908,908,0,0,908,0,0,9823,908,0,0,0,9823,0,9831,0,0,0,0,9831,0,0,0,0,0,0,908,0,0,0,0,0,0,0,0,0,0,0,0,0,9672,0,0,0,0,0,908,908,908,908,908,908,908,908,908,908,908,908,908,908,908,908,908,908,908,908,908,908,908,908,908,908,908,908,908,908,908,908,908,908,908,908,908,908,908,908,908,908,908,908,908,908,908,908|0,0,0,0,0,0,0,0,2829,0,0,0,2829,9583,0,2829,9807,9632,2829,2829,0,9838,2829,0,0,9443,2829,0,0,0,9443,9331,0,0,0,0,0,0,0,0,0,0,0,0,2829,0,0,0,0,0,0,0,9583,0,0,0,9331,9838,9632,9807,0,0,0,0,2829,2829,2829,2829,2829,2829,2829,2829,2829,2829,2829,2829,2829,2829,2829,2829,2829,2829,2829,2829,2829,2829,2829,2829,2829,2829,2829,2829,2829,2829,2829,2829,2829,2829,2829,2829,2829,2829,2829,2829,2829,2829,2829,2829,2829,2829,2829,2829|0,0,0,0,0,0,0,0,2536,0,0,0,2536,9583,0,2536,9807,9866,2536,2536,0,9838,2536,0,0,9501,2536,0,0,0,9501,9331,0,0,0,0,0,0,0,0,0,0,0,0,2536,0,0,0,0,0,0,0,9583,0,0,0,9331,9838,9866,9807,0,0,0,0,2536,2536,2536,2536,2536,2536,2536,2536,2536,2536,2536,2536,2536,2536,2536,2536,2536,2536,2536,2536,2536,2536,2536,2536,2536,2536,2536,2536,2536,2536,2536,2536,2536,2536,2536,2536,2536,2536,2536,2536,2536,2536,2536,2536,2536,2536,2536,2536|0,0,0,0,0,0,0,0,7461,9660,0,8248,7461,9757,0,7461,0,0,7461,7461,9679,0,7461,9652,7921,8823,7461,0,0,0,8823,9519,0,9652,9754,9769,0,0,0,9679,8248,0,0,0,7461,0,9660,7921,0,0,0,0,9757,9652,0,9652,9519,0,0,0,9754,0,9754,9754,7461,7461,7461,7461,7461,7461,7461,7461,7461,7461,7461,7461,7461,7461,7461,7461,7461,7461,7461,7461,7461,7461,7461,7461,7461,7461,7461,7461,7461,7461,7461,7461,7461,7461,7461,7461,7461,7461,7461,7461,7461,7461,7461,7461,7461,7461,7461,7461|0,0,0,0,0,0,0,0,6499,9843,9872,0,6499,0,0,6499,0,5983,6499,6499,0,0,6499,0,9631,9835,6499,0,0,0,9835,0,9021,0,0,0,9746,9021,0,0,0,0,0,9843,6499,0,9843,9631,0,0,0,0,0,0,9746,0,0,0,5983,0,0,9872,0,0,6499,6499,6499,6499,6499,6499,6499,6499,6499,6499,6499,6499,6499,6499,6499,6499,6499,6499,6499,6499,6499,6499,6499,6499,6499,6499,6499,6499,6499,6499,6499,6499,6499,6499,6499,6499,6499,6499,6499,6499,6499,6499,6499,6499,6499,6499,6499,6499|0,0,0,0,0,0,0,0,5042,9117,9117,0,5042,9736,9807,5042,0,9531,5042,5042,0,0,5042,0,9426,9551,5042,0,0,0,9551,9863,0,0,0,0,9144,0,0,0,0,0,0,0,5042,0,9117,9426,0,0,0,0,9736,0,9144,0,9863,0,9531,0,0,9117,0,0,5042,5042,5042,5042,5042,5042,5042,5042,5042,5042,5042,5042,5042,5042,5042,5042,5042,5042,5042,5042,5042,5042,5042,5042,5042,5042,5042,5042,5042,5042,5042,5042,5042,5042,5042,5042,5042,5042,5042,5042,5042,5042,5042,5042,5042,5042,5042,5042|0,0,0,0,0,0,0,0,4905,9341,9568,9831,4905,0,9739,4905,0,9136,4905,4905,0,0,4905,9554,9593,9550,4905,0,0,0,9550,0,9874,9554,0,9822,9535,9874,0,0,9831,0,0,9838,4905,0,9341,9593,0,0,0,0,0,9554,9535,9554,0,0,9136,0,0,9568,0,0,4905,4905,4905,4905,4905,4905,4905,4905,4905,4905,4905,4905,4905,4905,4905,4905,4905,4905,4905,4905,4905,4905,4905,4905,4905,4905,4905,4905,4905,4905,4905,4905,4905,4905,4905,4905,4905,4905,4905,4905,4905,4905,4905,4905,4905,4905,4905,4905|];
int: wm;
int: obj = w+wm-wp;
float: time = 0.0;
